(set-option :produce-models true)
(set-logic QF_UF)
(declare-fun p5() Bool)
(declare-fun p24() Bool)
(declare-fun p10() Bool)
(declare-fun p36() Bool)
(declare-fun p27() Bool)
(declare-fun p33() Bool)
(declare-fun p16() Bool)
(declare-fun p32() Bool)
(declare-fun p31() Bool)
(declare-fun p7() Bool)
(declare-fun p22() Bool)
(declare-fun p15() Bool)
(declare-fun p25() Bool)
(declare-fun p26() Bool)
(declare-fun p18() Bool)
(declare-fun p11() Bool)
(declare-fun p2() Bool)
(declare-fun p37() Bool)
(declare-fun p0() Bool)
(declare-fun p6() Bool)
(declare-fun p8() Bool)
(declare-fun p30() Bool)
(declare-fun p12() Bool)
(declare-fun p20() Bool)
(declare-fun p38() Bool)
(declare-fun p1() Bool)
(declare-fun p4() Bool)
(declare-fun p14() Bool)
(declare-fun p39() Bool)
(declare-fun p35() Bool)
(declare-fun p34() Bool)
(declare-fun p9() Bool)
(declare-fun p17() Bool)
(declare-fun p28() Bool)
(declare-fun p3() Bool)
(declare-fun p23() Bool)
(declare-fun p21() Bool)
(declare-fun p13() Bool)
(declare-fun p29() Bool)
(declare-fun p19() Bool)
(assert
(and (or p5 (not p24) (not p10)) (or p36 p27 (not p33)) (or (not p16) p32 p31) (or (not p24) p7 p22) (or (not p15) (not p32) p25) (or (not p26) p26 (not p18)) (or (not p11) (not p2) (not p37)) (or (not p0) p6 (not p27)) (or (not p2) p22 (not p8)) (or (not p10) (not p27) p2) (or p10 p18 p30) (or p12 p2 (not p20)) (or (not p8) p38 (not p7)) (or p25 p1 p4) (or (not p14) p20 p39) (or p35 p34 (not p10)) (or (not p4) p32 p22) (or p1 (not p33) (not p9)) (or (not p17) (not p36) (not p28)) (or p38 (not p22) (not p3)) (or p31 (not p33) (not p23)) (or (not p4) (not p26) p22) (or p16 p11 p8) (or (not p4) p25 p30) (or p21 p31 p8) (or (not p28) (not p21) p25) (or p22 p2 p37) (or p12 (not p18) (not p26)) (or (not p16) p39 p0) (or p7 p7 p28) (or p14 p32 p8) (or (not p33) (not p18) (not p4)) (or (not p7) (not p37) p36) (or p25 p18 p5) (or p36 (not p18) (not p7)) (or (not p6) (not p15) p39) (or p35 (not p15) p21) (or p18 p11 (not p13)) (or (not p24) (not p7) p18) (or (not p34) p16 (not p37)) (or p7 (not p37) p1) (or p7 (not p29) (not p4)) (or p0 p6 p27) (or p15 p18 p35) (or (not p35) p25 p36) (or (not p28) p35 (not p22)) (or p0 (not p38) p35) (or (not p36) (not p7) (not p26)) (or p11 (not p31) (not p2)) (or (not p30) p13 p7) (or p33 p16 (not p2)) (or (not p17) p39 p9) (or (not p34) p25 p27) (or p32 p26 p18) (or p36 p19 p27) (or (not p26) (not p15) p32) (or p13 (not p34) (not p25)) (or (not p12) p11 p16) (or (not p9) (not p5) (not p1)) (or (not p20) (not p38) (not p38)) (or p6 p20 p26) (or p10 (not p15) (not p20)) (or p32 p2 (not p18)) (or (not p11) p23 p19) (or (not p39) p32 (not p38)) (or (not p37) p17 p11) (or (not p26) (not p28) (not p7)) (or p38 p16 p17) (or p31 p10 (not p4)) (or p32 p15 (not p2)) (or (not p37) (not p22) (not p37)) (or (not p10) (not p25) p5) (or p21 (not p22) p30) (or (not p25) (not p21) p0) (or (not p18) p5 p35) (or p10 (not p34) (not p11)) (or p23 (not p19) p38) (or (not p36) p0 (not p2)) (or (not p13) (not p20) (not p39)) (or (not p32) (not p11) p39) (or (not p15) (not p26) p29) (or p24 p30 (not p22)) (or p1 (not p35) p39) (or p20 (not p7) p7) (or p26 (not p27) p7) (or (not p0) p34 (not p15)) (or (not p12) (not p20) (not p9)) (or (not p2) p19 (not p29)) (or p5 (not p4) p21) (or (not p32) (not p29) (not p15)) (or p30 (not p10) p24) (or p18 (not p32) p2) (or (not p28) p6 p39) (or p7 (not p23) (not p20)) (or p2 (not p39) (not p27)) (or (not p0) (not p25) p21) (or (not p17) (not p6) p12) (or p36 p20 (not p9)) (or (not p6) p18 (not p3)) (or p11 (not p30) (not p26)) (or (not p15) p13 (not p9)) (or (not p33) (not p19) (not p21)) (or (not p13) (not p27) p10) (or (not p34) p7 p15) (or p33 (not p21) p27) (or (not p13) (not p25) (not p34)) (or p22 p19 (not p26)) (or (not p18) p37 p1) (or (not p35) (not p16) (not p25)) (or p6 p11 p36) (or (not p16) p35 p32) (or p36 p19 p20) (or (not p35) (not p6) (not p18)) (or (not p11) (not p10) p10) (or (not p20) p23 p22) (or p27 p2 p33) (or p4 (not p34) (not p31)) (or (not p0) p0 (not p25)) (or (not p23) (not p24) p39) (or p2 p33 (not p10)) (or p24 p18 p38) (or (not p19) (not p9) p35) (or p11 (not p20) (not p35)) (or (not p35) p20 p24) (or (not p32) (not p33) (not p11)) (or (not p20) p28 p31) (or p8 p11 (not p24)) (or (not p11) p12 (not p5)) (or (not p34) p2 (not p20)) (or p10 (not p39) (not p19)) (or (not p4) (not p0) p32) (or (not p34) p13 p12) (or (not p6) (not p20) p24) (or (not p32) p2 (not p36)) (or (not p4) p17 p28) (or (not p16) p29 (not p14)) (or p14 (not p20) (not p35)) (or p22 p19 (not p38)) (or p38 (not p12) (not p21)) (or (not p27) (not p24) p39) (or p25 (not p3) (not p34)) (or p13 p1 p8) (or p5 p6 p3) (or p20 (not p17) p6) (or (not p11) p38 (not p6)) (or (not p19) p12 (not p39)) (or p0 (not p26) (not p20)) (or p33 (not p11) p11) (or p3 (not p11) (not p0)) (or (not p29) (not p8) (not p11)) (or p23 (not p3) p10) (or (not p29) p14 (not p18)) (or p2 (not p30) p9) (or p18 (not p1) (not p39)) (or (not p18) (not p7) p0) (or (not p18) p13 (not p37)) (or (not p12) (not p1) p35) (or (not p12) (not p1) (not p26)) (or (not p15) p26 (not p35)) (or (not p0) (not p5) (not p31)) (or p28 p1 (not p16)) (or (not p26) (not p23) p11) (or (not p32) (not p11) p26) (or p39 p16 p37) (or p1 p18 (not p21)) (or p9 p1 (not p33)) (or (not p23) (not p29) (not p25)) (or p7 p0 p30) (or p8 (not p25) p27) (or p2 p9 p1) (or (not p7) p4 (not p31)))
)
(check-sat)
(get-model)
